c Random generated cnf formula, satisfiable: false
p cnf 10 50
-4 -8 -10 0
5 10 -8 0
6 2 -5 0
3 -2 9 0
-5 6 1 0
5 3 -10 0
1 -5 -9 0
10 -1 7 0
4 -3 5 0
4 1 -3 0
1 -9 -8 0
-3 -4 -6 0
10 6 -8 0
-3 8 -5 0
-9 -10 -8 0
-9 -3 -7 0
-2 -7 1 0
4 -6 -7 0
-6 9 -10 0
8 7 -9 0
-4 -1 7 0
-5 7 -2 0
1 3 7 0
10 -1 8 0
-9 -3 10 0
8 6 -3 0
9 5 2 0
3 4 -5 0
-4 -6 -9 0
2 7 4 0
3 -10 6 0
1 -7 -5 0
-4 -3 9 0
-1 6 -3 0
5 10 -6 0
-6 4 -5 0
8 -6 -9 0
8 -3 7 0
6 3 -7 0
-1 -2 3 0
1 3 9 0
4 -2 -6 0
6 -2 10 0
-8 -7 9 0
6 -2 -1 0
3 -9 -6 0
5 2 8 0
-9 4 -2 0
-10 -7 -2 0
-8 -9 -2 0
